p cnf 60 0
c rules for 3:
-3 -8 -33 -34 0
34 3 0
34 8 0
34 33 0
33 3 0
33 8 0
8 3 0
c rules for 2:
-4 -9 -34 0
-4 -9 -35 0
35 34 9 0
35 34 4 0
-4 -34 -35 0
35 9 4 0
34 9 4 0
-9 -34 -35 0
4 35 34 0
c rules for 2:
-6 -11 -37 0
-6 -11 -38 0
38 37 11 0
38 37 6 0
-6 -37 -38 0
38 11 6 0
37 11 6 0
-11 -37 -38 0
6 38 37 0
c rules for 2:
-7 -12 -38 0
-7 -12 -39 0
39 38 12 0
39 38 7 0
-7 -38 -39 0
39 12 7 0
38 12 7 0
-12 -38 -39 0
7 39 38 0
c rules for 2:
-8 -13 -39 0
-8 -13 -40 0
40 39 13 0
40 39 8 0
-8 -39 -40 0
40 13 8 0
39 13 8 0
-13 -39 -40 0
8 40 39 0
c rules for 3:
-10 -15 -41 -42 0
42 10 0
42 15 0
42 41 0
41 10 0
41 15 0
15 10 0
c rules for 0:
-11 0
-16 0
-43 0
-44 0
c rules for 1:
14 19 46 47 0
-14 -19 0
-14 -46 0
-14 -47 0
-19 -46 0
-19 -47 0
-46 -47 0
c rules for 2:
-16 -21 -49 0
-16 -21 -50 0
50 49 21 0
50 49 16 0
-16 -49 -50 0
50 21 16 0
49 21 16 0
-21 -49 -50 0
16 50 49 0
c rules for 2:
-18 -23 -51 0
-18 -23 -52 0
52 51 23 0
52 51 18 0
-18 -51 -52 0
52 23 18 0
51 23 18 0
-23 -51 -52 0
18 52 51 0
c rules for 2:
-22 -27 -56 0
-22 -27 -57 0
57 56 27 0
57 56 22 0
-22 -56 -57 0
57 27 22 0
56 27 22 0
-27 -56 -57 0
22 57 56 0
c rules for 3:
-23 -28 -57 -58 0
58 23 0
58 28 0
58 57 0
57 23 0
57 28 0
28 23 0
c rules for 2:
-24 -29 -58 0
-24 -29 -59 0
59 58 29 0
59 58 24 0
-24 -58 -59 0
59 29 24 0
58 29 24 0
-29 -58 -59 0
24 59 58 0
c rules for 3:
-25 -30 -59 -60 0
60 25 0
60 30 0
60 59 0
59 25 0
59 30 0
30 25 0
